language ESSENCE' 1.0

letting n_courses be 132
letting n_periods be 30
letting prerequisite_RelationAsSet_Explicit_1 be
        [1, 1, 1, 1, 1, 1, 1, 1, 2, 2, 2, 2, 2, 2, 2, 2, 2, 2, 3, 3, 3, 3, 3, 3, 3, 3, 3, 3, 4, 4, 4, 4, 4, 4, 4, 4, 4,
         4, 5, 5, 5, 5, 5, 5, 5, 5, 5, 5, 5, 5, 5, 6, 6, 6, 6, 6, 6, 6, 6, 6, 7, 7, 7, 7, 7, 7, 7, 7, 7, 8, 8, 8, 8, 8,
         8, 8, 9, 9, 9, 9, 9, 9, 9, 10, 10, 10, 11, 11, 11, 11, 11, 11, 11, 12, 12, 12, 12, 12, 12, 12, 12, 12, 12, 12,
         12, 12, 12, 13, 13, 13, 13, 13, 13, 13, 14, 14, 14, 14, 14, 14, 14, 14, 14, 14, 14, 15, 15, 15, 15, 15, 15, 16,
         16, 16, 16, 16, 16, 16, 16, 16, 17, 17, 17, 17, 17, 18, 18, 18, 18, 18, 19, 19, 19, 19, 19, 19, 19, 19, 20, 20,
         20, 20, 20, 20, 20, 21, 21, 21, 21, 21, 22, 22, 22, 22, 22, 22, 23, 23, 23, 23, 23, 23, 23, 23, 24, 24, 24, 24,
         24, 24, 24, 24, 25, 25, 25, 25, 25, 26, 26, 26, 26, 26, 26, 26, 26, 26, 26, 26, 26, 27, 27, 27, 27, 27, 27, 27,
         27, 28, 28, 28, 28, 28, 28, 28, 28, 29, 29, 29, 29, 29, 29, 29, 29, 29, 29, 29, 30, 30, 31, 31, 31, 31, 31, 32,
         32, 32, 32, 32, 32, 32, 32, 33, 33, 33, 33, 33, 33, 34, 34, 34, 34, 34, 34, 34, 34, 34, 35, 35, 35, 35, 35, 36,
         36, 36, 36, 36, 36, 36, 36, 36, 36, 36, 37, 37, 37, 37, 37, 37, 38, 38, 38, 38, 38, 38, 38, 38, 38, 38, 38, 39,
         39, 39, 40, 40, 40, 40, 40, 40, 40, 40, 40, 40, 40, 40, 40, 41, 41, 41, 41, 41, 41, 41, 41, 42, 42, 42, 42, 42,
         42, 43, 43, 43, 43, 43, 44, 44, 44, 44, 44, 44, 44, 45, 45, 45, 45, 45, 46, 46, 46, 46, 46, 46, 46, 46, 47, 47,
         47, 48, 48, 48, 49, 49, 49, 49, 50, 50, 50, 50, 50, 50, 51, 51, 51, 51, 51, 52, 52, 52, 52, 53, 53, 53, 53, 53,
         53, 53, 53, 54, 54, 54, 54, 54, 55, 55, 55, 55, 56, 56, 56, 56, 56, 56, 56, 56, 57, 57, 57, 57, 57, 58, 58, 58,
         58, 58, 58, 58, 59, 59, 59, 59, 59, 60, 60, 60, 60, 60, 60, 61, 61, 61, 61, 61, 61, 61, 61, 62, 62, 62, 62, 63,
         63, 63, 63, 63, 63, 63, 64, 64, 64, 64, 64, 64, 65, 65, 65, 65, 65, 65, 65, 66, 66, 66, 66, 66, 67, 67, 67, 67,
         67, 68, 68, 68, 68, 68, 68, 68, 68, 68, 69, 69, 69, 69, 69, 69, 69, 70, 70, 70, 70, 70, 71, 71, 71, 71, 71, 71,
         71, 72, 72, 73, 73, 73, 73, 73, 73, 73, 74, 74, 74, 74, 74, 74, 75, 75, 75, 75, 75, 76, 76, 76, 76, 76, 76, 77,
         77, 77, 77, 77, 77, 78, 78, 78, 79, 79, 79, 79, 79, 79, 79, 79, 79, 80, 80, 80, 81, 81, 81, 81, 81, 81, 82, 82,
         82, 82, 82, 83, 83, 83, 83, 83, 84, 84, 84, 84, 84, 84, 85, 85, 85, 85, 85, 85, 85, 85, 86, 86, 86, 86, 86, 86,
         86, 86, 87, 87, 87, 87, 87, 87, 87, 87, 87, 88, 88, 88, 88, 88, 88, 89, 89, 89, 89, 90, 90, 90, 90, 90, 90, 90;
             int(1..608)]
letting prerequisite_RelationAsSet_Explicit_2 be
        [45, 48, 51, 55, 74, 75, 79, 85, 42, 43, 47, 53, 58, 61, 64, 76, 86, 87, 44, 45, 56, 65, 67, 71, 76, 83, 84, 85,
         42, 48, 50, 51, 57, 60, 63, 68, 70, 85, 43, 50, 54, 57, 59, 65, 68, 71, 77, 79, 80, 86, 88, 46, 52, 54, 59, 61,
         63, 69, 71, 79, 44, 48, 63, 68, 70, 71, 73, 84, 86, 45, 50, 52, 53, 56, 61, 81, 48, 65, 69, 74, 75, 78, 90, 51,
         72, 89, 43, 51, 60, 75, 80, 87, 89, 45, 48, 53, 57, 59, 62, 67, 72, 74, 76, 78, 83, 84, 88, 56, 61, 69, 73, 83,
         86, 88, 45, 48, 57, 60, 63, 70, 73, 77, 80, 84, 90, 46, 47, 56, 65, 68, 69, 46, 47, 48, 50, 51, 55, 75, 79, 84,
         50, 55, 58, 75, 87, 42, 48, 54, 64, 86, 50, 56, 57, 58, 66, 70, 86, 87, 45, 47, 54, 57, 67, 83, 89, 56, 68, 72,
         83, 86, 43, 48, 49, 57, 77, 79, 48, 49, 51, 52, 60, 71, 82, 90, 48, 59, 66, 69, 72, 84, 85, 87, 48, 58, 63, 65,
         84, 48, 50, 52, 58, 62, 63, 70, 73, 78, 80, 81, 88, 42, 46, 52, 54, 60, 67, 69, 70, 47, 48, 58, 64, 67, 69, 79,
         85, 42, 50, 55, 60, 62, 63, 78, 82, 85, 86, 90, 73, 89, 56, 64, 73, 77, 79, 45, 53, 56, 61, 69, 72, 80, 81, 48,
         53, 67, 69, 78, 90, 43, 48, 66, 70, 73, 74, 77, 82, 85, 50, 64, 69, 74, 82, 47, 48, 49, 51, 55, 59, 64, 81, 83,
         88, 89, 46, 48, 58, 64, 83, 85, 43, 47, 51, 54, 58, 64, 65, 70, 74, 79, 81, 53, 61, 88, 47, 52, 55, 60, 62, 63,
         64, 70, 75, 76, 79, 83, 89, 48, 49, 65, 67, 79, 83, 86, 89, 104, 109, 112, 117, 119, 125, 93, 106, 116, 122,
         125, 100, 108, 110, 112, 114, 120, 132, 95, 113, 118, 123, 132, 95, 96, 100, 101, 103, 114, 121, 130, 99, 120,
         123, 91, 114, 116, 98, 101, 105, 111, 96, 106, 108, 112, 117, 119, 91, 97, 101, 109, 120, 91, 115, 117, 123,
         94, 96, 100, 104, 111, 113, 128, 132, 93, 110, 111, 121, 126, 105, 107, 117, 119, 95, 97, 98, 104, 108, 116,
         117, 125, 96, 97, 99, 122, 129, 92, 95, 99, 100, 103, 105, 124, 102, 106, 112, 115, 120, 102, 108, 109, 111,
         122, 132, 94, 101, 105, 113, 117, 118, 125, 129, 100, 117, 120, 123, 103, 117, 119, 121, 122, 123, 129, 97,
         103, 108, 116, 123, 126, 96, 109, 113, 118, 128, 129, 131, 94, 97, 103, 125, 130, 96, 103, 108, 124, 130, 92,
         101, 108, 112, 118, 120, 124, 125, 127, 93, 95, 96, 100, 105, 110, 115, 95, 108, 110, 126, 128, 92, 100, 103,
         104, 109, 115, 121, 91, 116, 92, 93, 95, 104, 106, 128, 131, 101, 116, 123, 124, 130, 131, 97, 108, 111, 116,
         132, 102, 110, 114, 115, 118, 127, 102, 114, 118, 127, 130, 131, 106, 129, 131, 93, 96, 101, 104, 110, 121,
         123, 129, 130, 92, 93, 123, 94, 100, 120, 124, 126, 131, 97, 99, 112, 119, 130, 91, 94, 118, 119, 126, 100,
         107, 108, 111, 115, 128, 97, 100, 104, 110, 113, 121, 128, 130, 93, 102, 103, 106, 114, 115, 117, 119, 94, 103,
         107, 111, 113, 115, 122, 126, 132, 94, 108, 112, 119, 126, 131, 91, 101, 114, 127, 91, 100, 108, 117, 120, 131,
         132;
             int(1..608)]
letting course_load_Function1D be
        [5, 6, 3, 4, 4, 3, 4, 7, 4, 7, 7, 7, 7, 4, 4, 3, 3, 7, 6, 5, 7, 3, 7, 3, 5, 4, 6, 4, 5, 4, 4, 4, 4, 8, 7, 7, 8,
         6, 4, 3, 7, 7, 6, 7, 5, 3, 8, 7, 5, 7, 6, 4, 3, 5, 7, 6, 4, 8, 3, 8, 7, 3, 6, 5, 5, 7, 5, 6, 4, 6, 3, 7, 3, 8,
         3, 6, 4, 8, 4, 7, 7, 5, 5, 3, 4, 3, 7, 5, 3, 8, 4, 8, 5, 4, 7, 7, 4, 4, 4, 3, 3, 4, 4, 7, 4, 5, 6, 7, 7, 4, 7,
         4, 3, 7, 7, 4, 7, 6, 7, 4, 5, 5, 6, 4, 8, 6, 7, 7, 8, 3, 6, 6;
             int(1..132)]
letting load_per_period_ub be 42
letting load_per_period_lb be 2
letting courses_per_period_ub be 10
letting courses_per_period_lb be 4
letting fin1 be 608
letting fin2 be 132
letting fin3 be 8
